1662357600
1662386400
1662444000
1662444000
1662444000
1662472800
1662530400
1662559200
1662616800
1662645600
1662703200
1662732000
1662962400
1662991200
1663048800
1663077600
1663135200
1663164000
1663164000
1663171200
1663221600
1663250400
1663308000
1663336800
1663495200
1663498800
1663567200
1663596000
1663653600
1663682400
1663740000
1663768800
1663826400
1663855200
1663912800
1663941600
1664172000
1664200800
1664258400
1664287200
1664344800
1664373600
1664431200
1664460000
1664517600
1664546400
